data/lp_files/q3/53_3.lp
\ Model foo
\ LP format - for model browsing. Use MPS format to capture full model detail.
Minimize
  z
Subject To
 allocateEach[1]: x[1,1] + x[2,1] + x[3,1] = 1
 allocateEach[2]: x[1,2] + x[2,2] + x[3,2] = 1
 allocateEach[3]: x[1,3] + x[2,3] + x[3,3] = 1
 allocateEach[4]: x[1,4] + x[2,4] + x[3,4] = 1
 allocateEach[5]: x[1,5] + x[2,5] + x[3,5] = 1
 allocateEach[6]: x[1,6] + x[2,6] + x[3,6] = 1
 allocateEach[7]: x[1,7] + x[2,7] + x[3,7] = 1
 allocateEach[8]: x[1,8] + x[2,8] + x[3,8] = 1
 allocateEach[9]: x[1,9] + x[2,9] + x[3,9] = 1
 allocateEach[10]: x[1,10] + x[2,10] + x[3,10] = 1
 allocateEach[11]: x[1,11] + x[2,11] + x[3,11] = 1
 allocateEach[12]: x[1,12] + x[2,12] + x[3,12] = 1
 allocateEach[13]: x[1,13] + x[2,13] + x[3,13] = 1
 allocateAllCash: cashProportion[1] + cashProportion[2] + cashProportion[3]
   = 1
 findWorstP[1,2]: z + 0.0260905865163849 cashProportion[1]
   - 0.0260905865163849 cashProportion[2] + 0.0824853892715508 x[1,1]
   + 0.0850292214568984 x[1,2] + 0.0280343352118556 x[1,3]
   + 0.1057973283239407 x[1,4] + 0.070431538300981 x[1,5]
   + 0.0167762471300355 x[1,6] + 0.1087716551868086 x[1,7]
   + 0.1020141932790649 x[1,8] + 0.0692313713212273 x[1,9]
   + 0.1078715299519933 x[1,10] + 0.00459194322688374 x[1,11]
   + 0.1237606971404717 x[1,12] + 0.0691139636819036 x[1,13]
   - 0.0824853892715508 x[2,1] - 0.0850292214568984 x[2,2]
   - 0.0280343352118556 x[2,3] - 0.1057973283239407 x[2,4]
   - 0.070431538300981 x[2,5] - 0.0167762471300355 x[2,6]
   - 0.1087716551868086 x[2,7] - 0.1020141932790649 x[2,8]
   - 0.0692313713212273 x[2,9] - 0.1078715299519933 x[2,10]
   - 0.00459194322688374 x[2,11] - 0.1237606971404717 x[2,12]
   - 0.0691139636819036 x[2,13] >= 0
 findWorstP[1,3]: z + 0.0260905865163849 cashProportion[1]
   - 0.0260905865163849 cashProportion[3] + 0.0824853892715508 x[1,1]
   + 0.0850292214568984 x[1,2] + 0.0280343352118556 x[1,3]
   + 0.1057973283239407 x[1,4] + 0.070431538300981 x[1,5]
   + 0.0167762471300355 x[1,6] + 0.1087716551868086 x[1,7]
   + 0.1020141932790649 x[1,8] + 0.0692313713212273 x[1,9]
   + 0.1078715299519933 x[1,10] + 0.00459194322688374 x[1,11]
   + 0.1237606971404717 x[1,12] + 0.0691139636819036 x[1,13]
   - 0.0824853892715508 x[3,1] - 0.0850292214568984 x[3,2]
   - 0.0280343352118556 x[3,3] - 0.1057973283239407 x[3,4]
   - 0.070431538300981 x[3,5] - 0.0167762471300355 x[3,6]
   - 0.1087716551868086 x[3,7] - 0.1020141932790649 x[3,8]
   - 0.0692313713212273 x[3,9] - 0.1078715299519933 x[3,10]
   - 0.00459194322688374 x[3,11] - 0.1237606971404717 x[3,12]
   - 0.0691139636819036 x[3,13] >= 0
 findWorstP[2,1]: z - 0.0342917888311644 cashProportion[1]
   + 0.0342917888311644 cashProportion[2] - 0.1098708914150507 x[1,1]
   - 0.1402191245306311 x[1,2] - 0.0146254479364916 x[1,3]
   - 0.0348918951357097 x[1,4] - 0.1323491589938789 x[1,5]
   - 0.093548 x[1,6] - 0.0387154295903846 x[1,7]
   - 0.0234212917716853 x[1,8] - 0.0798484302933662 x[1,9]
   - 0.0765564185655745 x[1,10] - 0.0724585498002503 x[1,11]
   - 0.0995490629768702 x[1,12] - 0.049654510227526 x[1,13]
   + 0.1098708914150507 x[2,1] + 0.1402191245306311 x[2,2]
   + 0.0146254479364916 x[2,3] + 0.0348918951357097 x[2,4]
   + 0.1323491589938789 x[2,5] + 0.093548 x[2,6]
   + 0.0387154295903846 x[2,7] + 0.0234212917716853 x[2,8]
   + 0.0798484302933662 x[2,9] + 0.0765564185655745 x[2,10]
   + 0.0724585498002503 x[2,11] + 0.0995490629768702 x[2,12]
   + 0.049654510227526 x[2,13] >= 0
 findWorstP[2,3]: z + 0.0342917888311644 cashProportion[2]
   - 0.0342917888311644 cashProportion[3] + 0.1098708914150507 x[2,1]
   + 0.1402191245306311 x[2,2] + 0.0146254479364916 x[2,3]
   + 0.0348918951357097 x[2,4] + 0.1323491589938789 x[2,5]
   + 0.093548 x[2,6] + 0.0387154295903846 x[2,7]
   + 0.0234212917716853 x[2,8] + 0.0798484302933662 x[2,9]
   + 0.0765564185655745 x[2,10] + 0.0724585498002503 x[2,11]
   + 0.0995490629768702 x[2,12] + 0.049654510227526 x[2,13]
   - 0.1098708914150507 x[3,1] - 0.1402191245306311 x[3,2]
   - 0.0146254479364916 x[3,3] - 0.0348918951357097 x[3,4]
   - 0.1323491589938789 x[3,5] - 0.093548 x[3,6]
   - 0.0387154295903846 x[3,7] - 0.0234212917716853 x[3,8]
   - 0.0798484302933662 x[3,9] - 0.0765564185655745 x[3,10]
   - 0.0724585498002503 x[3,11] - 0.0995490629768702 x[3,12]
   - 0.049654510227526 x[3,13] >= 0
 findWorstP[3,1]: z - 0.0355523953426362 cashProportion[1]
   + 0.0355523953426362 cashProportion[3] - 0.0545195982579326 x[1,1]
   - 0.047444671584748 x[1,2] - 0.1531597191360768 x[1,3]
   - 0.0432850413296596 x[1,4] - 0.0430717269576038 x[1,5]
   - 3.910763487689983e-04 x[1,6] - 0.164625366634077 x[1,7]
   - 0.0429828459692472 x[1,8] - 0.031463869878233 x[1,9]
   - 0.1698693449471158 x[1,10] - 0.0394987112256688 x[1,11]
   - 0.0866411874500044 x[1,12] - 0.0874944449382277 x[1,13]
   + 0.0545195982579326 x[3,1] + 0.047444671584748 x[3,2]
   + 0.1531597191360768 x[3,3] + 0.0432850413296596 x[3,4]
   + 0.0430717269576038 x[3,5] + 3.910763487689983e-04 x[3,6]
   + 0.164625366634077 x[3,7] + 0.0429828459692472 x[3,8]
   + 0.031463869878233 x[3,9] + 0.1698693449471158 x[3,10]
   + 0.0394987112256688 x[3,11] + 0.0866411874500044 x[3,12]
   + 0.0874944449382277 x[3,13] >= 0
 findWorstP[3,2]: z - 0.0355523953426362 cashProportion[2]
   + 0.0355523953426362 cashProportion[3] - 0.0545195982579326 x[2,1]
   - 0.047444671584748 x[2,2] - 0.1531597191360768 x[2,3]
   - 0.0432850413296596 x[2,4] - 0.0430717269576038 x[2,5]
   - 3.910763487689983e-04 x[2,6] - 0.164625366634077 x[2,7]
   - 0.0429828459692472 x[2,8] - 0.031463869878233 x[2,9]
   - 0.1698693449471158 x[2,10] - 0.0394987112256688 x[2,11]
   - 0.0866411874500044 x[2,12] - 0.0874944449382277 x[2,13]
   + 0.0545195982579326 x[3,1] + 0.047444671584748 x[3,2]
   + 0.1531597191360768 x[3,3] + 0.0432850413296596 x[3,4]
   + 0.0430717269576038 x[3,5] + 3.910763487689983e-04 x[3,6]
   + 0.164625366634077 x[3,7] + 0.0429828459692472 x[3,8]
   + 0.031463869878233 x[3,9] + 0.1698693449471158 x[3,10]
   + 0.0394987112256688 x[3,11] + 0.0866411874500044 x[3,12]
   + 0.0874944449382277 x[3,13] >= 0
Bounds
 z <= 1
 -infinity <= cashProportion[1] <= 1
 -infinity <= cashProportion[2] <= 1
 -infinity <= cashProportion[3] <= 1
Binaries
 x[1,1] x[1,2] x[1,3] x[1,4] x[1,5] x[1,6] x[1,7] x[1,8] x[1,9] x[1,10]
 x[1,11] x[1,12] x[1,13] x[2,1] x[2,2] x[2,3] x[2,4] x[2,5] x[2,6] x[2,7]
 x[2,8] x[2,9] x[2,10] x[2,11] x[2,12] x[2,13] x[3,1] x[3,2] x[3,3] x[3,4]
 x[3,5] x[3,6] x[3,7] x[3,8] x[3,9] x[3,10] x[3,11] x[3,12] x[3,13]
End
