data/mps_files/q3/53_3.mps
NAME foo
ROWS
 N  OBJ
 E  allocateEach[1]
 E  allocateEach[2]
 E  allocateEach[3]
 E  allocateEach[4]
 E  allocateEach[5]
 E  allocateEach[6]
 E  allocateEach[7]
 E  allocateEach[8]
 E  allocateEach[9]
 E  allocateEach[10]
 E  allocateEach[11]
 E  allocateEach[12]
 E  allocateEach[13]
 E  allocateAllCash
 G  findWorstP[1,2]
 G  findWorstP[1,3]
 G  findWorstP[2,1]
 G  findWorstP[2,3]
 G  findWorstP[3,1]
 G  findWorstP[3,2]
COLUMNS
    z         OBJ       1
    z         findWorstP[1,2]  1
    z         findWorstP[1,3]  1
    z         findWorstP[2,1]  1
    z         findWorstP[2,3]  1
    z         findWorstP[3,1]  1
    z         findWorstP[3,2]  1
    cashProportion[1]  allocateAllCash  1
    cashProportion[1]  findWorstP[1,2]  2.6090586516384892e-02
    cashProportion[1]  findWorstP[1,3]  2.6090586516384892e-02
    cashProportion[1]  findWorstP[2,1]  -3.4291788831164370e-02
    cashProportion[1]  findWorstP[3,1]  -3.5552395342636205e-02
    cashProportion[2]  allocateAllCash  1
    cashProportion[2]  findWorstP[1,2]  -2.6090586516384892e-02
    cashProportion[2]  findWorstP[2,1]  3.4291788831164370e-02
    cashProportion[2]  findWorstP[2,3]  3.4291788831164370e-02
    cashProportion[2]  findWorstP[3,2]  -3.5552395342636205e-02
    cashProportion[3]  allocateAllCash  1
    cashProportion[3]  findWorstP[1,3]  -2.6090586516384892e-02
    cashProportion[3]  findWorstP[2,3]  -3.4291788831164370e-02
    cashProportion[3]  findWorstP[3,1]  3.5552395342636205e-02
    cashProportion[3]  findWorstP[3,2]  3.5552395342636205e-02
    MARKER    'MARKER'                 'INTORG'
    x[1,1]    allocateEach[1]  1
    x[1,1]    findWorstP[1,2]  8.2485389271550830e-02
    x[1,1]    findWorstP[1,3]  8.2485389271550830e-02
    x[1,1]    findWorstP[2,1]  -1.0987089141505066e-01
    x[1,1]    findWorstP[3,1]  -5.4519598257932615e-02
    x[1,2]    allocateEach[2]  1
    x[1,2]    findWorstP[1,2]  8.5029221456898355e-02
    x[1,2]    findWorstP[1,3]  8.5029221456898355e-02
    x[1,2]    findWorstP[2,1]  -1.4021912453063112e-01
    x[1,2]    findWorstP[3,1]  -4.7444671584748022e-02
    x[1,3]    allocateEach[3]  1
    x[1,3]    findWorstP[1,2]  2.8034335211855565e-02
    x[1,3]    findWorstP[1,3]  2.8034335211855565e-02
    x[1,3]    findWorstP[2,1]  -1.4625447936491605e-02
    x[1,3]    findWorstP[3,1]  -1.5315971913607679e-01
    x[1,4]    allocateEach[4]  1
    x[1,4]    findWorstP[1,2]  1.0579732832394073e-01
    x[1,4]    findWorstP[1,3]  1.0579732832394073e-01
    x[1,4]    findWorstP[2,1]  -3.4891895135709748e-02
    x[1,4]    findWorstP[3,1]  -4.3285041329659581e-02
    x[1,5]    allocateEach[5]  1
    x[1,5]    findWorstP[1,2]  7.0431538300981020e-02
    x[1,5]    findWorstP[1,3]  7.0431538300981020e-02
    x[1,5]    findWorstP[2,1]  -1.3234915899387889e-01
    x[1,5]    findWorstP[3,1]  -4.3071726957603765e-02
    x[1,6]    allocateEach[6]  1
    x[1,6]    findWorstP[1,2]  1.6776247130035483e-02
    x[1,6]    findWorstP[1,3]  1.6776247130035483e-02
    x[1,6]    findWorstP[2,1]  -0.0935479999314164
    x[1,6]    findWorstP[3,1]  -3.9107634876899830e-04
    x[1,7]    allocateEach[7]  1
    x[1,7]    findWorstP[1,2]  1.0877165518680861e-01
    x[1,7]    findWorstP[1,3]  1.0877165518680861e-01
    x[1,7]    findWorstP[2,1]  -3.8715429590384577e-02
    x[1,7]    findWorstP[3,1]  -1.6462536663407695e-01
    x[1,8]    allocateEach[8]  1
    x[1,8]    findWorstP[1,2]  1.0201419327906493e-01
    x[1,8]    findWorstP[1,3]  1.0201419327906493e-01
    x[1,8]    findWorstP[2,1]  -2.3421291771685265e-02
    x[1,8]    findWorstP[3,1]  -4.2982845969247174e-02
    x[1,9]    allocateEach[9]  1
    x[1,9]    findWorstP[1,2]  0.0692313713212273
    x[1,9]    findWorstP[1,3]  0.0692313713212273
    x[1,9]    findWorstP[2,1]  -7.9848430293366246e-02
    x[1,9]    findWorstP[3,1]  -3.1463869878233040e-02
    x[1,10]   allocateEach[10]  1
    x[1,10]   findWorstP[1,2]  1.0787152995199333e-01
    x[1,10]   findWorstP[1,3]  1.0787152995199333e-01
    x[1,10]   findWorstP[2,1]  -7.6556418565574463e-02
    x[1,10]   findWorstP[3,1]  -1.6986934494711578e-01
    x[1,11]   allocateEach[11]  1
    x[1,11]   findWorstP[1,2]  4.5919432268837412e-03
    x[1,11]   findWorstP[1,3]  4.5919432268837412e-03
    x[1,11]   findWorstP[2,1]  -7.2458549800250308e-02
    x[1,11]   findWorstP[3,1]  -3.9498711225668830e-02
    x[1,12]   allocateEach[12]  1
    x[1,12]   findWorstP[1,2]  1.2376069714047172e-01
    x[1,12]   findWorstP[1,3]  1.2376069714047172e-01
    x[1,12]   findWorstP[2,1]  -9.9549062976870176e-02
    x[1,12]   findWorstP[3,1]  -8.6641187450004431e-02
    x[1,13]   allocateEach[13]  1
    x[1,13]   findWorstP[1,2]  6.9113963681903576e-02
    x[1,13]   findWorstP[1,3]  6.9113963681903576e-02
    x[1,13]   findWorstP[2,1]  -4.9654510227526011e-02
    x[1,13]   findWorstP[3,1]  -8.7494444938227708e-02
    x[2,1]    allocateEach[1]  1
    x[2,1]    findWorstP[1,2]  -8.2485389271550830e-02
    x[2,1]    findWorstP[2,1]  1.0987089141505066e-01
    x[2,1]    findWorstP[2,3]  1.0987089141505066e-01
    x[2,1]    findWorstP[3,2]  -5.4519598257932615e-02
    x[2,2]    allocateEach[2]  1
    x[2,2]    findWorstP[1,2]  -8.5029221456898355e-02
    x[2,2]    findWorstP[2,1]  1.4021912453063112e-01
    x[2,2]    findWorstP[2,3]  1.4021912453063112e-01
    x[2,2]    findWorstP[3,2]  -4.7444671584748022e-02
    x[2,3]    allocateEach[3]  1
    x[2,3]    findWorstP[1,2]  -2.8034335211855565e-02
    x[2,3]    findWorstP[2,1]  1.4625447936491605e-02
    x[2,3]    findWorstP[2,3]  1.4625447936491605e-02
    x[2,3]    findWorstP[3,2]  -1.5315971913607679e-01
    x[2,4]    allocateEach[4]  1
    x[2,4]    findWorstP[1,2]  -1.0579732832394073e-01
    x[2,4]    findWorstP[2,1]  3.4891895135709748e-02
    x[2,4]    findWorstP[2,3]  3.4891895135709748e-02
    x[2,4]    findWorstP[3,2]  -4.3285041329659581e-02
    x[2,5]    allocateEach[5]  1
    x[2,5]    findWorstP[1,2]  -7.0431538300981020e-02
    x[2,5]    findWorstP[2,1]  1.3234915899387889e-01
    x[2,5]    findWorstP[2,3]  1.3234915899387889e-01
    x[2,5]    findWorstP[3,2]  -4.3071726957603765e-02
    x[2,6]    allocateEach[6]  1
    x[2,6]    findWorstP[1,2]  -1.6776247130035483e-02
    x[2,6]    findWorstP[2,1]  0.0935479999314164
    x[2,6]    findWorstP[2,3]  0.0935479999314164
    x[2,6]    findWorstP[3,2]  -3.9107634876899830e-04
    x[2,7]    allocateEach[7]  1
    x[2,7]    findWorstP[1,2]  -1.0877165518680861e-01
    x[2,7]    findWorstP[2,1]  3.8715429590384577e-02
    x[2,7]    findWorstP[2,3]  3.8715429590384577e-02
    x[2,7]    findWorstP[3,2]  -1.6462536663407695e-01
    x[2,8]    allocateEach[8]  1
    x[2,8]    findWorstP[1,2]  -1.0201419327906493e-01
    x[2,8]    findWorstP[2,1]  2.3421291771685265e-02
    x[2,8]    findWorstP[2,3]  2.3421291771685265e-02
    x[2,8]    findWorstP[3,2]  -4.2982845969247174e-02
    x[2,9]    allocateEach[9]  1
    x[2,9]    findWorstP[1,2]  -0.0692313713212273
    x[2,9]    findWorstP[2,1]  7.9848430293366246e-02
    x[2,9]    findWorstP[2,3]  7.9848430293366246e-02
    x[2,9]    findWorstP[3,2]  -3.1463869878233040e-02
    x[2,10]   allocateEach[10]  1
    x[2,10]   findWorstP[1,2]  -1.0787152995199333e-01
    x[2,10]   findWorstP[2,1]  7.6556418565574463e-02
    x[2,10]   findWorstP[2,3]  7.6556418565574463e-02
    x[2,10]   findWorstP[3,2]  -1.6986934494711578e-01
    x[2,11]   allocateEach[11]  1
    x[2,11]   findWorstP[1,2]  -4.5919432268837412e-03
    x[2,11]   findWorstP[2,1]  7.2458549800250308e-02
    x[2,11]   findWorstP[2,3]  7.2458549800250308e-02
    x[2,11]   findWorstP[3,2]  -3.9498711225668830e-02
    x[2,12]   allocateEach[12]  1
    x[2,12]   findWorstP[1,2]  -1.2376069714047172e-01
    x[2,12]   findWorstP[2,1]  9.9549062976870176e-02
    x[2,12]   findWorstP[2,3]  9.9549062976870176e-02
    x[2,12]   findWorstP[3,2]  -8.6641187450004431e-02
    x[2,13]   allocateEach[13]  1
    x[2,13]   findWorstP[1,2]  -6.9113963681903576e-02
    x[2,13]   findWorstP[2,1]  4.9654510227526011e-02
    x[2,13]   findWorstP[2,3]  4.9654510227526011e-02
    x[2,13]   findWorstP[3,2]  -8.7494444938227708e-02
    x[3,1]    allocateEach[1]  1
    x[3,1]    findWorstP[1,3]  -8.2485389271550830e-02
    x[3,1]    findWorstP[2,3]  -1.0987089141505066e-01
    x[3,1]    findWorstP[3,1]  5.4519598257932615e-02
    x[3,1]    findWorstP[3,2]  5.4519598257932615e-02
    x[3,2]    allocateEach[2]  1
    x[3,2]    findWorstP[1,3]  -8.5029221456898355e-02
    x[3,2]    findWorstP[2,3]  -1.4021912453063112e-01
    x[3,2]    findWorstP[3,1]  4.7444671584748022e-02
    x[3,2]    findWorstP[3,2]  4.7444671584748022e-02
    x[3,3]    allocateEach[3]  1
    x[3,3]    findWorstP[1,3]  -2.8034335211855565e-02
    x[3,3]    findWorstP[2,3]  -1.4625447936491605e-02
    x[3,3]    findWorstP[3,1]  1.5315971913607679e-01
    x[3,3]    findWorstP[3,2]  1.5315971913607679e-01
    x[3,4]    allocateEach[4]  1
    x[3,4]    findWorstP[1,3]  -1.0579732832394073e-01
    x[3,4]    findWorstP[2,3]  -3.4891895135709748e-02
    x[3,4]    findWorstP[3,1]  4.3285041329659581e-02
    x[3,4]    findWorstP[3,2]  4.3285041329659581e-02
    x[3,5]    allocateEach[5]  1
    x[3,5]    findWorstP[1,3]  -7.0431538300981020e-02
    x[3,5]    findWorstP[2,3]  -1.3234915899387889e-01
    x[3,5]    findWorstP[3,1]  4.3071726957603765e-02
    x[3,5]    findWorstP[3,2]  4.3071726957603765e-02
    x[3,6]    allocateEach[6]  1
    x[3,6]    findWorstP[1,3]  -1.6776247130035483e-02
    x[3,6]    findWorstP[2,3]  -0.0935479999314164
    x[3,6]    findWorstP[3,1]  3.9107634876899830e-04
    x[3,6]    findWorstP[3,2]  3.9107634876899830e-04
    x[3,7]    allocateEach[7]  1
    x[3,7]    findWorstP[1,3]  -1.0877165518680861e-01
    x[3,7]    findWorstP[2,3]  -3.8715429590384577e-02
    x[3,7]    findWorstP[3,1]  1.6462536663407695e-01
    x[3,7]    findWorstP[3,2]  1.6462536663407695e-01
    x[3,8]    allocateEach[8]  1
    x[3,8]    findWorstP[1,3]  -1.0201419327906493e-01
    x[3,8]    findWorstP[2,3]  -2.3421291771685265e-02
    x[3,8]    findWorstP[3,1]  4.2982845969247174e-02
    x[3,8]    findWorstP[3,2]  4.2982845969247174e-02
    x[3,9]    allocateEach[9]  1
    x[3,9]    findWorstP[1,3]  -0.0692313713212273
    x[3,9]    findWorstP[2,3]  -7.9848430293366246e-02
    x[3,9]    findWorstP[3,1]  3.1463869878233040e-02
    x[3,9]    findWorstP[3,2]  3.1463869878233040e-02
    x[3,10]   allocateEach[10]  1
    x[3,10]   findWorstP[1,3]  -1.0787152995199333e-01
    x[3,10]   findWorstP[2,3]  -7.6556418565574463e-02
    x[3,10]   findWorstP[3,1]  1.6986934494711578e-01
    x[3,10]   findWorstP[3,2]  1.6986934494711578e-01
    x[3,11]   allocateEach[11]  1
    x[3,11]   findWorstP[1,3]  -4.5919432268837412e-03
    x[3,11]   findWorstP[2,3]  -7.2458549800250308e-02
    x[3,11]   findWorstP[3,1]  3.9498711225668830e-02
    x[3,11]   findWorstP[3,2]  3.9498711225668830e-02
    x[3,12]   allocateEach[12]  1
    x[3,12]   findWorstP[1,3]  -1.2376069714047172e-01
    x[3,12]   findWorstP[2,3]  -9.9549062976870176e-02
    x[3,12]   findWorstP[3,1]  8.6641187450004431e-02
    x[3,12]   findWorstP[3,2]  8.6641187450004431e-02
    x[3,13]   allocateEach[13]  1
    x[3,13]   findWorstP[1,3]  -6.9113963681903576e-02
    x[3,13]   findWorstP[2,3]  -4.9654510227526011e-02
    x[3,13]   findWorstP[3,1]  8.7494444938227708e-02
    x[3,13]   findWorstP[3,2]  8.7494444938227708e-02
    MARKER    'MARKER'                 'INTEND'
RHS
    RHS1      allocateEach[1]  1
    RHS1      allocateEach[2]  1
    RHS1      allocateEach[3]  1
    RHS1      allocateEach[4]  1
    RHS1      allocateEach[5]  1
    RHS1      allocateEach[6]  1
    RHS1      allocateEach[7]  1
    RHS1      allocateEach[8]  1
    RHS1      allocateEach[9]  1
    RHS1      allocateEach[10]  1
    RHS1      allocateEach[11]  1
    RHS1      allocateEach[12]  1
    RHS1      allocateEach[13]  1
    RHS1      allocateAllCash  1
BOUNDS
 UP BND1      z         1
 MI BND1      cashProportion[1]
 UP BND1      cashProportion[1]  1
 MI BND1      cashProportion[2]
 UP BND1      cashProportion[2]  1
 MI BND1      cashProportion[3]
 UP BND1      cashProportion[3]  1
 BV BND1      x[1,1]  
 BV BND1      x[1,2]  
 BV BND1      x[1,3]  
 BV BND1      x[1,4]  
 BV BND1      x[1,5]  
 BV BND1      x[1,6]  
 BV BND1      x[1,7]  
 BV BND1      x[1,8]  
 BV BND1      x[1,9]  
 BV BND1      x[1,10] 
 BV BND1      x[1,11] 
 BV BND1      x[1,12] 
 BV BND1      x[1,13] 
 BV BND1      x[2,1]  
 BV BND1      x[2,2]  
 BV BND1      x[2,3]  
 BV BND1      x[2,4]  
 BV BND1      x[2,5]  
 BV BND1      x[2,6]  
 BV BND1      x[2,7]  
 BV BND1      x[2,8]  
 BV BND1      x[2,9]  
 BV BND1      x[2,10] 
 BV BND1      x[2,11] 
 BV BND1      x[2,12] 
 BV BND1      x[2,13] 
 BV BND1      x[3,1]  
 BV BND1      x[3,2]  
 BV BND1      x[3,3]  
 BV BND1      x[3,4]  
 BV BND1      x[3,5]  
 BV BND1      x[3,6]  
 BV BND1      x[3,7]  
 BV BND1      x[3,8]  
 BV BND1      x[3,9]  
 BV BND1      x[3,10] 
 BV BND1      x[3,11] 
 BV BND1      x[3,12] 
 BV BND1      x[3,13] 
ENDATA
